NAME : cluster_netgen
COMMENT : cl=6
TYPE : TSP
DIMENSION : 50
EDGE_WEIGHT_TYPE : EUC_2D
NODE_COORD_SECTION
1 500549 699387
2 554567 761170
3 462923 716959
4 545611 735040
5 488295 683641
6 606816 740366
7 612401 807829
8 464492 737634
9 476522 705995
10 503390 766127
11 259538 437650
12 285612 495217
13 248517 440504
14 276333 384203
15 269724 447439
16 317995 491485
17 241330 513193
18 235543 390959
19 408430 276982
20 422166 291196
21 386813 192148
22 353801 192260
23 501053 241619
24 353499 180770
25 318709 200268
26 376642 325522
27 268401 612136
28 102630 532590
29 243705 610535
30 176703 566795
31 82302 581067
32 92634 575078
33 92837 537926
34 147831 588256
35 784142 910545
36 830503 992807
37 841898 980277
38 794139 867384
39 777921 984084
40 753266 974082
41 782297 979802
42 705750 921742
43 873239 12871
44 973586 55152
45 954359 153699
46 905183 54348
47 952192 80799
48 905618 6823
49 909078 4821
50 967603 7567

EOF
